
******************************************************************************
This program contains Ipopt, a library for large-scale nonlinear optimization.
 Ipopt is released as open source code under the Eclipse Public License (EPL).
         For more information visit http://projects.coin-or.org/Ipopt
******************************************************************************

This is Ipopt version 3.12.6, running with linear solver ma57.

Number of nonzeros in equality constraint Jacobian...:        0
Number of nonzeros in inequality constraint Jacobian.:    50000
Number of nonzeros in Lagrangian Hessian.............:    99999

Total number of variables............................:    50000
                     variables with only lower bounds:        0
                variables with lower and upper bounds:    50000
                     variables with only upper bounds:        0
Total number of equality constraints.................:        0
Total number of inequality constraints...............:    25000
        inequality constraints with only lower bounds:    25000
   inequality constraints with lower and upper bounds:        0
        inequality constraints with only upper bounds:        0

iter    objective    inf_pr   inf_du lg(mu)  ||d||  lg(rg) alpha_du alpha_pr  ls
   0 -2.5000465e+02 9.80e-01 1.17e+00  -1.0 0.00e+00    -  0.00e+00 0.00e+00   0
   1 -7.4860077e+02 9.40e-01 1.34e+00  -1.0 4.01e-01    -  3.19e-02 5.00e-02h  1
   2 -1.7066939e+04 0.00e+00 3.61e+00  -1.0 8.34e-01    -  3.43e-01 1.00e+00f  1
   3 -2.9637320e+04 0.00e+00 1.17e+00  -1.0 1.58e+00    -  4.05e-01 9.27e-01f  1
   4 -3.9145553e+04 0.00e+00 2.66e-01  -1.0 1.02e+00    -  6.68e-01 1.00e+00f  1
   5 -4.6505967e+04 0.00e+00 9.80e-02  -1.7 1.38e+00    -  4.59e-01 8.15e-01f  1
   6 -4.8918947e+04 0.00e+00 7.19e-02  -2.5 1.02e+00    -  5.28e-01 7.70e-01f  1
   7 -4.9668780e+04 0.00e+00 4.18e-02  -2.5 9.76e-01    -  5.50e-01 8.28e-01f  1
   8 -4.9830795e+04 0.00e+00 1.78e-02  -2.5 9.27e-01    -  6.16e-01 8.74e-01f  1
   9 -4.9972977e+04 0.00e+00 1.37e-02  -3.8 8.55e-01    -  5.64e-01 8.99e-01f  1
iter    objective    inf_pr   inf_du lg(mu)  ||d||  lg(rg) alpha_du alpha_pr  ls
  10 -4.9989417e+04 0.00e+00 8.93e-03  -3.8 8.13e-01    -  5.94e-01 9.10e-01f  1
  11 -4.9991465e+04 0.00e+00 5.06e-03  -3.8 8.00e-01    -  6.41e-01 9.31e-01f  1
  12 -4.9991690e+04 0.00e+00 1.23e-03  -3.8 6.89e-01    -  8.66e-01 9.93e-01f  1
  13 -4.9998946e+04 0.00e+00 7.57e-04  -5.7 3.07e-01    -  8.42e-01 9.79e-01f  1
  14 -4.9999091e+04 0.00e+00 1.71e-05  -5.7 1.28e-01    -  9.61e-01 9.13e-01f  1
  15 -4.9999104e+04 0.00e+00 1.07e-05  -5.7 5.33e-02    -  1.00e+00 9.71e-01f  1
  16 -4.9999168e+04 0.00e+00 1.54e-04  -8.6 1.82e-02    -  9.91e-01 6.89e-01f  1
  17 -4.9999188e+04 0.00e+00 1.40e-04  -8.6 9.37e-03    -  1.00e+00 7.13e-01f  1
  18 -4.9999194e+04 0.00e+00 1.17e-04  -8.6 3.78e-03    -  1.00e+00 7.07e-01f  1
  19 -4.9999196e+04 0.00e+00 3.64e-05  -8.6 1.45e-03    -  1.00e+00 8.88e-01f  1
iter    objective    inf_pr   inf_du lg(mu)  ||d||  lg(rg) alpha_du alpha_pr  ls
  20 -4.9999197e+04 0.00e+00 2.51e-14  -8.6 2.49e-04    -  1.00e+00 1.00e+00f  1
  21 -4.9999197e+04 0.00e+00 9.09e-15  -9.0 2.90e-05    -  1.00e+00 1.00e+00f  1

Number of Iterations....: 21

                                   (scaled)                 (unscaled)
Objective...............:  -4.9999196682724454e+04   -4.9999196682724454e+04
Dual infeasibility......:   9.0909090908930799e-15    9.0909090908930799e-15
Constraint violation....:   0.0000000000000000e+00    0.0000000000000000e+00
Complementarity.........:   1.4159249784428280e-09    1.4159249784428280e-09
Overall NLP error.......:   1.4159249784428280e-09    1.4159249784428280e-09


Number of objective function evaluations             = 22
Number of objective gradient evaluations             = 22
Number of equality constraint evaluations            = 0
Number of inequality constraint evaluations          = 22
Number of equality constraint Jacobian evaluations   = 0
Number of inequality constraint Jacobian evaluations = 22
Number of Lagrangian Hessian evaluations             = 21
Total CPU secs in IPOPT (w/o function evaluations)   =      1.350
Total CPU secs in NLP function evaluations           =      0.483

EXIT: Optimal Solution Found.
Note: The following floating-point exceptions are signalling: IEEE_UNDERFLOW_FLAG IEEE_DENORMAL

************************ CUTEst statistics ************************


 Package used            :  IPOPT
 Problem                 :  QPBAND    
 # variables             =           50000
 # constraints           =           25000
 # objective functions   =        0.4500000E+02
 # objective gradients   =        0.2300000E+02
 # objective Hessians    =        0.2200000E+02
 # Hessian-vector prdct  =        0.0000000E+00
 # constraints functions =        0.4600000E+02
 # constraints gradients =        0.2400000E+02
 # constraints Hessians  =        0.2200000E+02
 Exit code               =               0
 Final f                 =  -0.4999920E+05
 Set up time             =            0.39 seconds
 Solve time              =            5.03 seconds


******************************************************************

System Time =       1.2749999762 s.
